;; Produced with Z3_solver_to_string()
(declare-fun sea.sp0_0 () (_ BitVec 64))
(declare-fun main@%_4634_0 () (_ BitVec 32))
(declare-fun main@%_4653_0 () (_ BitVec 32))
(declare-fun main@%_4638_0 () (_ BitVec 32))
(declare-fun main@%_4404_0 () (_ BitVec 32))
(declare-fun main@%_4423_0 () (_ BitVec 32))
(declare-fun main@%_4408_0 () (_ BitVec 32))
(declare-fun main@%_4174_0 () (_ BitVec 32))
(declare-fun main@%_4193_0 () (_ BitVec 32))
(declare-fun main@%_4178_0 () (_ BitVec 32))
(declare-fun main@%_3944_0 () (_ BitVec 32))
(declare-fun main@%_3963_0 () (_ BitVec 32))
(declare-fun main@%_3948_0 () (_ BitVec 32))
(declare-fun main@%_3714_0 () (_ BitVec 32))
(declare-fun main@%_3733_0 () (_ BitVec 32))
(declare-fun main@%_3718_0 () (_ BitVec 32))
(declare-fun main@%_3484_0 () (_ BitVec 32))
(declare-fun main@%_3503_0 () (_ BitVec 32))
(declare-fun main@%_3488_0 () (_ BitVec 32))
(declare-fun main@%_3254_0 () (_ BitVec 32))
(declare-fun main@%_3273_0 () (_ BitVec 32))
(declare-fun main@%_3258_0 () (_ BitVec 32))
(declare-fun main@%_3024_0 () (_ BitVec 32))
(declare-fun main@%_3043_0 () (_ BitVec 32))
(declare-fun main@%_3028_0 () (_ BitVec 32))
(declare-fun main@%_2794_0 () (_ BitVec 32))
(declare-fun main@%_2813_0 () (_ BitVec 32))
(declare-fun main@%_2798_0 () (_ BitVec 32))
(declare-fun main@%_2564_0 () (_ BitVec 32))
(declare-fun main@%_2583_0 () (_ BitVec 32))
(declare-fun main@%_2568_0 () (_ BitVec 32))
(declare-fun main@%_2334_0 () (_ BitVec 32))
(declare-fun main@%_2353_0 () (_ BitVec 32))
(declare-fun main@%_2338_0 () (_ BitVec 32))
(declare-fun main@%_2104_0 () (_ BitVec 32))
(declare-fun main@%_2123_0 () (_ BitVec 32))
(declare-fun main@%_2108_0 () (_ BitVec 32))
(declare-fun main@%_1874_0 () (_ BitVec 32))
(declare-fun main@%_1893_0 () (_ BitVec 32))
(declare-fun main@%_1878_0 () (_ BitVec 32))
(declare-fun main@%_1644_0 () (_ BitVec 32))
(declare-fun main@%_1663_0 () (_ BitVec 32))
(declare-fun main@%_1648_0 () (_ BitVec 32))
(declare-fun main@%_1414_0 () (_ BitVec 32))
(declare-fun main@%_1433_0 () (_ BitVec 32))
(declare-fun main@%_1418_0 () (_ BitVec 32))
(declare-fun main@%_1184_0 () (_ BitVec 32))
(declare-fun main@%_1203_0 () (_ BitVec 32))
(declare-fun main@%_1188_0 () (_ BitVec 32))
(declare-fun main@%_954_0 () (_ BitVec 32))
(declare-fun main@%_973_0 () (_ BitVec 32))
(declare-fun main@%_958_0 () (_ BitVec 32))
(declare-fun main@%_724_0 () (_ BitVec 32))
(declare-fun main@%_743_0 () (_ BitVec 32))
(declare-fun main@%_728_0 () (_ BitVec 32))
(declare-fun main@%_494_0 () (_ BitVec 32))
(declare-fun main@%_513_0 () (_ BitVec 32))
(declare-fun main@%_498_0 () (_ BitVec 32))
(declare-fun main@%_60_0 () (_ BitVec 32))
(declare-fun main@%_79_0 () (_ BitVec 32))
(declare-fun main@%_64_0 () (_ BitVec 32))
(declare-fun main@%_17_0 () (_ BitVec 8))
(declare-fun main@%_14_0 () (_ BitVec 8))
(assert (= #b000 ((_ extract 2 0) sea.sp0_0)))
(assert (bvule sea.sp0_0 #x00000000c0000000))
(assert (bvuge sea.sp0_0 #x00000000bf700000))
(assert (let ((a!1 (or (= ((_ extract 0 0) main@%_14_0) #b1)
               (xor (= ((_ extract 0 0) main@%_17_0) #b1) true)))
      (a!2 (= ((_ extract 0 0) (bvlshr ((_ extract 23 0) main@%_60_0) #x000017))
              #b1))
      (a!3 (= ((_ extract 0 0) (bvlshr ((_ extract 23 0) main@%_64_0) #x000017))
              #b1))
      (a!5 (= ((_ extract 0 0) (bvlshr ((_ extract 23 0) main@%_79_0) #x000017))
              #b1))
      (a!8 (= ((_ extract 0 0)
                (bvlshr ((_ extract 23 0) main@%_494_0) #x000017))
              #b1))
      (a!9 (= ((_ extract 0 0)
                (bvlshr ((_ extract 23 0) main@%_498_0) #x000017))
              #b1))
      (a!11 (= ((_ extract 0 0)
                 (bvlshr ((_ extract 23 0) main@%_513_0) #x000017))
               #b1))
      (a!14 (= ((_ extract 0 0)
                 (bvlshr ((_ extract 23 0) main@%_724_0) #x000017))
               #b1))
      (a!15 (= ((_ extract 0 0)
                 (bvlshr ((_ extract 23 0) main@%_728_0) #x000017))
               #b1))
      (a!17 (= ((_ extract 0 0)
                 (bvlshr ((_ extract 23 0) main@%_743_0) #x000017))
               #b1))
      (a!20 (= ((_ extract 0 0)
                 (bvlshr ((_ extract 23 0) main@%_954_0) #x000017))
               #b1))
      (a!21 (= ((_ extract 0 0)
                 (bvlshr ((_ extract 23 0) main@%_958_0) #x000017))
               #b1))
      (a!23 (= ((_ extract 0 0)
                 (bvlshr ((_ extract 23 0) main@%_973_0) #x000017))
               #b1))
      (a!26 (= ((_ extract 0 0)
                 (bvlshr ((_ extract 23 0) main@%_1184_0) #x000017))
               #b1))
      (a!27 (= ((_ extract 0 0)
                 (bvlshr ((_ extract 23 0) main@%_1188_0) #x000017))
               #b1))
      (a!29 (= ((_ extract 0 0)
                 (bvlshr ((_ extract 23 0) main@%_1203_0) #x000017))
               #b1))
      (a!32 (= ((_ extract 0 0)
                 (bvlshr ((_ extract 23 0) main@%_1414_0) #x000017))
               #b1))
      (a!33 (= ((_ extract 0 0)
                 (bvlshr ((_ extract 23 0) main@%_1418_0) #x000017))
               #b1))
      (a!35 (= ((_ extract 0 0)
                 (bvlshr ((_ extract 23 0) main@%_1433_0) #x000017))
               #b1))
      (a!38 (= ((_ extract 0 0)
                 (bvlshr ((_ extract 23 0) main@%_1644_0) #x000017))
               #b1))
      (a!39 (= ((_ extract 0 0)
                 (bvlshr ((_ extract 23 0) main@%_1648_0) #x000017))
               #b1))
      (a!41 (= ((_ extract 0 0)
                 (bvlshr ((_ extract 23 0) main@%_1663_0) #x000017))
               #b1))
      (a!44 (= ((_ extract 0 0)
                 (bvlshr ((_ extract 23 0) main@%_1874_0) #x000017))
               #b1))
      (a!45 (= ((_ extract 0 0)
                 (bvlshr ((_ extract 23 0) main@%_1878_0) #x000017))
               #b1))
      (a!47 (= ((_ extract 0 0)
                 (bvlshr ((_ extract 23 0) main@%_1893_0) #x000017))
               #b1))
      (a!50 (= ((_ extract 0 0)
                 (bvlshr ((_ extract 23 0) main@%_2104_0) #x000017))
               #b1))
      (a!51 (= ((_ extract 0 0)
                 (bvlshr ((_ extract 23 0) main@%_2108_0) #x000017))
               #b1))
      (a!53 (= ((_ extract 0 0)
                 (bvlshr ((_ extract 23 0) main@%_2123_0) #x000017))
               #b1))
      (a!56 (= ((_ extract 0 0)
                 (bvlshr ((_ extract 23 0) main@%_2334_0) #x000017))
               #b1))
      (a!57 (= ((_ extract 0 0)
                 (bvlshr ((_ extract 23 0) main@%_2338_0) #x000017))
               #b1))
      (a!59 (= ((_ extract 0 0)
                 (bvlshr ((_ extract 23 0) main@%_2353_0) #x000017))
               #b1))
      (a!62 (= ((_ extract 0 0)
                 (bvlshr ((_ extract 23 0) main@%_2564_0) #x000017))
               #b1))
      (a!63 (= ((_ extract 0 0)
                 (bvlshr ((_ extract 23 0) main@%_2568_0) #x000017))
               #b1))
      (a!65 (= ((_ extract 0 0)
                 (bvlshr ((_ extract 23 0) main@%_2583_0) #x000017))
               #b1))
      (a!68 (= ((_ extract 0 0)
                 (bvlshr ((_ extract 23 0) main@%_2794_0) #x000017))
               #b1))
      (a!69 (= ((_ extract 0 0)
                 (bvlshr ((_ extract 23 0) main@%_2798_0) #x000017))
               #b1))
      (a!71 (= ((_ extract 0 0)
                 (bvlshr ((_ extract 23 0) main@%_2813_0) #x000017))
               #b1))
      (a!74 (= ((_ extract 0 0)
                 (bvlshr ((_ extract 23 0) main@%_3024_0) #x000017))
               #b1))
      (a!75 (= ((_ extract 0 0)
                 (bvlshr ((_ extract 23 0) main@%_3028_0) #x000017))
               #b1))
      (a!77 (= ((_ extract 0 0)
                 (bvlshr ((_ extract 23 0) main@%_3043_0) #x000017))
               #b1))
      (a!80 (= ((_ extract 0 0)
                 (bvlshr ((_ extract 23 0) main@%_3254_0) #x000017))
               #b1))
      (a!81 (= ((_ extract 0 0)
                 (bvlshr ((_ extract 23 0) main@%_3258_0) #x000017))
               #b1))
      (a!83 (= ((_ extract 0 0)
                 (bvlshr ((_ extract 23 0) main@%_3273_0) #x000017))
               #b1))
      (a!86 (= ((_ extract 0 0)
                 (bvlshr ((_ extract 23 0) main@%_3484_0) #x000017))
               #b1))
      (a!87 (= ((_ extract 0 0)
                 (bvlshr ((_ extract 23 0) main@%_3488_0) #x000017))
               #b1))
      (a!89 (= ((_ extract 0 0)
                 (bvlshr ((_ extract 23 0) main@%_3503_0) #x000017))
               #b1))
      (a!92 (= ((_ extract 0 0)
                 (bvlshr ((_ extract 23 0) main@%_3714_0) #x000017))
               #b1))
      (a!93 (= ((_ extract 0 0)
                 (bvlshr ((_ extract 23 0) main@%_3718_0) #x000017))
               #b1))
      (a!95 (= ((_ extract 0 0)
                 (bvlshr ((_ extract 23 0) main@%_3733_0) #x000017))
               #b1))
      (a!98 (= ((_ extract 0 0)
                 (bvlshr ((_ extract 23 0) main@%_3944_0) #x000017))
               #b1))
      (a!99 (= ((_ extract 0 0)
                 (bvlshr ((_ extract 23 0) main@%_3948_0) #x000017))
               #b1))
      (a!101 (= ((_ extract 0 0)
                  (bvlshr ((_ extract 23 0) main@%_3963_0) #x000017))
                #b1))
      (a!104 (= ((_ extract 0 0)
                  (bvlshr ((_ extract 23 0) main@%_4174_0) #x000017))
                #b1))
      (a!105 (= ((_ extract 0 0)
                  (bvlshr ((_ extract 23 0) main@%_4178_0) #x000017))
                #b1))
      (a!107 (= ((_ extract 0 0)
                  (bvlshr ((_ extract 23 0) main@%_4193_0) #x000017))
                #b1))
      (a!110 (= ((_ extract 0 0)
                  (bvlshr ((_ extract 23 0) main@%_4404_0) #x000017))
                #b1))
      (a!111 (= ((_ extract 0 0)
                  (bvlshr ((_ extract 23 0) main@%_4408_0) #x000017))
                #b1))
      (a!113 (= ((_ extract 0 0)
                  (bvlshr ((_ extract 23 0) main@%_4423_0) #x000017))
                #b1))
      (a!116 (= ((_ extract 0 0)
                  (bvlshr ((_ extract 23 0) main@%_4634_0) #x000017))
                #b1))
      (a!117 (= ((_ extract 0 0)
                  (bvlshr ((_ extract 23 0) main@%_4638_0) #x000017))
                #b1))
      (a!119 (= ((_ extract 0 0)
                  (bvlshr ((_ extract 23 0) main@%_4653_0) #x000017))
                #b1)))
(let ((a!4 (bvult (bvor (ite a!2 #x800000 #x000000)
                        ((_ zero_extend 1) ((_ extract 22 0) main@%_64_0)))
                  (bvor (ite a!3 #x800000 #x000000)
                        ((_ zero_extend 1) ((_ extract 22 0) main@%_60_0)))))
      (a!6 (bvult (bvor (ite a!2 #x800000 #x000000)
                        ((_ zero_extend 1) ((_ extract 22 0) main@%_79_0)))
                  (bvor (ite a!5 #x800000 #x000000)
                        ((_ zero_extend 1) ((_ extract 22 0) main@%_60_0)))))
      (a!7 (bvult (bvor (ite a!3 #x800000 #x000000)
                        ((_ zero_extend 1) ((_ extract 22 0) main@%_79_0)))
                  (bvor (ite a!5 #x800000 #x000000)
                        ((_ zero_extend 1) ((_ extract 22 0) main@%_64_0)))))
      (a!10 (bvult (bvor (ite a!8 #x800000 #x000000)
                         ((_ zero_extend 1) ((_ extract 22 0) main@%_498_0)))
                   (bvor (ite a!9 #x800000 #x000000)
                         ((_ zero_extend 1) ((_ extract 22 0) main@%_494_0)))))
      (a!12 (bvult (bvor (ite a!8 #x800000 #x000000)
                         ((_ zero_extend 1) ((_ extract 22 0) main@%_513_0)))
                   (bvor (ite a!11 #x800000 #x000000)
                         ((_ zero_extend 1) ((_ extract 22 0) main@%_494_0)))))
      (a!13 (bvult (bvor (ite a!9 #x800000 #x000000)
                         ((_ zero_extend 1) ((_ extract 22 0) main@%_513_0)))
                   (bvor (ite a!11 #x800000 #x000000)
                         ((_ zero_extend 1) ((_ extract 22 0) main@%_498_0)))))
      (a!16 (bvult (bvor (ite a!14 #x800000 #x000000)
                         ((_ zero_extend 1) ((_ extract 22 0) main@%_728_0)))
                   (bvor (ite a!15 #x800000 #x000000)
                         ((_ zero_extend 1) ((_ extract 22 0) main@%_724_0)))))
      (a!18 (bvult (bvor (ite a!14 #x800000 #x000000)
                         ((_ zero_extend 1) ((_ extract 22 0) main@%_743_0)))
                   (bvor (ite a!17 #x800000 #x000000)
                         ((_ zero_extend 1) ((_ extract 22 0) main@%_724_0)))))
      (a!19 (bvult (bvor (ite a!15 #x800000 #x000000)
                         ((_ zero_extend 1) ((_ extract 22 0) main@%_743_0)))
                   (bvor (ite a!17 #x800000 #x000000)
                         ((_ zero_extend 1) ((_ extract 22 0) main@%_728_0)))))
      (a!22 (bvult (bvor (ite a!20 #x800000 #x000000)
                         ((_ zero_extend 1) ((_ extract 22 0) main@%_958_0)))
                   (bvor (ite a!21 #x800000 #x000000)
                         ((_ zero_extend 1) ((_ extract 22 0) main@%_954_0)))))
      (a!24 (bvult (bvor (ite a!20 #x800000 #x000000)
                         ((_ zero_extend 1) ((_ extract 22 0) main@%_973_0)))
                   (bvor (ite a!23 #x800000 #x000000)
                         ((_ zero_extend 1) ((_ extract 22 0) main@%_954_0)))))
      (a!25 (bvult (bvor (ite a!21 #x800000 #x000000)
                         ((_ zero_extend 1) ((_ extract 22 0) main@%_973_0)))
                   (bvor (ite a!23 #x800000 #x000000)
                         ((_ zero_extend 1) ((_ extract 22 0) main@%_958_0)))))
      (a!28 (bvult (bvor (ite a!26 #x800000 #x000000)
                         ((_ zero_extend 1) ((_ extract 22 0) main@%_1188_0)))
                   (bvor (ite a!27 #x800000 #x000000)
                         ((_ zero_extend 1) ((_ extract 22 0) main@%_1184_0)))))
      (a!30 (bvult (bvor (ite a!26 #x800000 #x000000)
                         ((_ zero_extend 1) ((_ extract 22 0) main@%_1203_0)))
                   (bvor (ite a!29 #x800000 #x000000)
                         ((_ zero_extend 1) ((_ extract 22 0) main@%_1184_0)))))
      (a!31 (bvult (bvor (ite a!27 #x800000 #x000000)
                         ((_ zero_extend 1) ((_ extract 22 0) main@%_1203_0)))
                   (bvor (ite a!29 #x800000 #x000000)
                         ((_ zero_extend 1) ((_ extract 22 0) main@%_1188_0)))))
      (a!34 (bvult (bvor (ite a!32 #x800000 #x000000)
                         ((_ zero_extend 1) ((_ extract 22 0) main@%_1418_0)))
                   (bvor (ite a!33 #x800000 #x000000)
                         ((_ zero_extend 1) ((_ extract 22 0) main@%_1414_0)))))
      (a!36 (bvult (bvor (ite a!32 #x800000 #x000000)
                         ((_ zero_extend 1) ((_ extract 22 0) main@%_1433_0)))
                   (bvor (ite a!35 #x800000 #x000000)
                         ((_ zero_extend 1) ((_ extract 22 0) main@%_1414_0)))))
      (a!37 (bvult (bvor (ite a!33 #x800000 #x000000)
                         ((_ zero_extend 1) ((_ extract 22 0) main@%_1433_0)))
                   (bvor (ite a!35 #x800000 #x000000)
                         ((_ zero_extend 1) ((_ extract 22 0) main@%_1418_0)))))
      (a!40 (bvult (bvor (ite a!38 #x800000 #x000000)
                         ((_ zero_extend 1) ((_ extract 22 0) main@%_1648_0)))
                   (bvor (ite a!39 #x800000 #x000000)
                         ((_ zero_extend 1) ((_ extract 22 0) main@%_1644_0)))))
      (a!42 (bvult (bvor (ite a!38 #x800000 #x000000)
                         ((_ zero_extend 1) ((_ extract 22 0) main@%_1663_0)))
                   (bvor (ite a!41 #x800000 #x000000)
                         ((_ zero_extend 1) ((_ extract 22 0) main@%_1644_0)))))
      (a!43 (bvult (bvor (ite a!39 #x800000 #x000000)
                         ((_ zero_extend 1) ((_ extract 22 0) main@%_1663_0)))
                   (bvor (ite a!41 #x800000 #x000000)
                         ((_ zero_extend 1) ((_ extract 22 0) main@%_1648_0)))))
      (a!46 (bvult (bvor (ite a!44 #x800000 #x000000)
                         ((_ zero_extend 1) ((_ extract 22 0) main@%_1878_0)))
                   (bvor (ite a!45 #x800000 #x000000)
                         ((_ zero_extend 1) ((_ extract 22 0) main@%_1874_0)))))
      (a!48 (bvult (bvor (ite a!44 #x800000 #x000000)
                         ((_ zero_extend 1) ((_ extract 22 0) main@%_1893_0)))
                   (bvor (ite a!47 #x800000 #x000000)
                         ((_ zero_extend 1) ((_ extract 22 0) main@%_1874_0)))))
      (a!49 (bvult (bvor (ite a!45 #x800000 #x000000)
                         ((_ zero_extend 1) ((_ extract 22 0) main@%_1893_0)))
                   (bvor (ite a!47 #x800000 #x000000)
                         ((_ zero_extend 1) ((_ extract 22 0) main@%_1878_0)))))
      (a!52 (bvult (bvor (ite a!50 #x800000 #x000000)
                         ((_ zero_extend 1) ((_ extract 22 0) main@%_2108_0)))
                   (bvor (ite a!51 #x800000 #x000000)
                         ((_ zero_extend 1) ((_ extract 22 0) main@%_2104_0)))))
      (a!54 (bvult (bvor (ite a!50 #x800000 #x000000)
                         ((_ zero_extend 1) ((_ extract 22 0) main@%_2123_0)))
                   (bvor (ite a!53 #x800000 #x000000)
                         ((_ zero_extend 1) ((_ extract 22 0) main@%_2104_0)))))
      (a!55 (bvult (bvor (ite a!51 #x800000 #x000000)
                         ((_ zero_extend 1) ((_ extract 22 0) main@%_2123_0)))
                   (bvor (ite a!53 #x800000 #x000000)
                         ((_ zero_extend 1) ((_ extract 22 0) main@%_2108_0)))))
      (a!58 (bvult (bvor (ite a!56 #x800000 #x000000)
                         ((_ zero_extend 1) ((_ extract 22 0) main@%_2338_0)))
                   (bvor (ite a!57 #x800000 #x000000)
                         ((_ zero_extend 1) ((_ extract 22 0) main@%_2334_0)))))
      (a!60 (bvult (bvor (ite a!56 #x800000 #x000000)
                         ((_ zero_extend 1) ((_ extract 22 0) main@%_2353_0)))
                   (bvor (ite a!59 #x800000 #x000000)
                         ((_ zero_extend 1) ((_ extract 22 0) main@%_2334_0)))))
      (a!61 (bvult (bvor (ite a!57 #x800000 #x000000)
                         ((_ zero_extend 1) ((_ extract 22 0) main@%_2353_0)))
                   (bvor (ite a!59 #x800000 #x000000)
                         ((_ zero_extend 1) ((_ extract 22 0) main@%_2338_0)))))
      (a!64 (bvult (bvor (ite a!62 #x800000 #x000000)
                         ((_ zero_extend 1) ((_ extract 22 0) main@%_2568_0)))
                   (bvor (ite a!63 #x800000 #x000000)
                         ((_ zero_extend 1) ((_ extract 22 0) main@%_2564_0)))))
      (a!66 (bvult (bvor (ite a!62 #x800000 #x000000)
                         ((_ zero_extend 1) ((_ extract 22 0) main@%_2583_0)))
                   (bvor (ite a!65 #x800000 #x000000)
                         ((_ zero_extend 1) ((_ extract 22 0) main@%_2564_0)))))
      (a!67 (bvult (bvor (ite a!63 #x800000 #x000000)
                         ((_ zero_extend 1) ((_ extract 22 0) main@%_2583_0)))
                   (bvor (ite a!65 #x800000 #x000000)
                         ((_ zero_extend 1) ((_ extract 22 0) main@%_2568_0)))))
      (a!70 (bvult (bvor (ite a!68 #x800000 #x000000)
                         ((_ zero_extend 1) ((_ extract 22 0) main@%_2798_0)))
                   (bvor (ite a!69 #x800000 #x000000)
                         ((_ zero_extend 1) ((_ extract 22 0) main@%_2794_0)))))
      (a!72 (bvult (bvor (ite a!68 #x800000 #x000000)
                         ((_ zero_extend 1) ((_ extract 22 0) main@%_2813_0)))
                   (bvor (ite a!71 #x800000 #x000000)
                         ((_ zero_extend 1) ((_ extract 22 0) main@%_2794_0)))))
      (a!73 (bvult (bvor (ite a!69 #x800000 #x000000)
                         ((_ zero_extend 1) ((_ extract 22 0) main@%_2813_0)))
                   (bvor (ite a!71 #x800000 #x000000)
                         ((_ zero_extend 1) ((_ extract 22 0) main@%_2798_0)))))
      (a!76 (bvult (bvor (ite a!74 #x800000 #x000000)
                         ((_ zero_extend 1) ((_ extract 22 0) main@%_3028_0)))
                   (bvor (ite a!75 #x800000 #x000000)
                         ((_ zero_extend 1) ((_ extract 22 0) main@%_3024_0)))))
      (a!78 (bvult (bvor (ite a!74 #x800000 #x000000)
                         ((_ zero_extend 1) ((_ extract 22 0) main@%_3043_0)))
                   (bvor (ite a!77 #x800000 #x000000)
                         ((_ zero_extend 1) ((_ extract 22 0) main@%_3024_0)))))
      (a!79 (bvult (bvor (ite a!75 #x800000 #x000000)
                         ((_ zero_extend 1) ((_ extract 22 0) main@%_3043_0)))
                   (bvor (ite a!77 #x800000 #x000000)
                         ((_ zero_extend 1) ((_ extract 22 0) main@%_3028_0)))))
      (a!82 (bvult (bvor (ite a!80 #x800000 #x000000)
                         ((_ zero_extend 1) ((_ extract 22 0) main@%_3258_0)))
                   (bvor (ite a!81 #x800000 #x000000)
                         ((_ zero_extend 1) ((_ extract 22 0) main@%_3254_0)))))
      (a!84 (bvult (bvor (ite a!80 #x800000 #x000000)
                         ((_ zero_extend 1) ((_ extract 22 0) main@%_3273_0)))
                   (bvor (ite a!83 #x800000 #x000000)
                         ((_ zero_extend 1) ((_ extract 22 0) main@%_3254_0)))))
      (a!85 (bvult (bvor (ite a!81 #x800000 #x000000)
                         ((_ zero_extend 1) ((_ extract 22 0) main@%_3273_0)))
                   (bvor (ite a!83 #x800000 #x000000)
                         ((_ zero_extend 1) ((_ extract 22 0) main@%_3258_0)))))
      (a!88 (bvult (bvor (ite a!86 #x800000 #x000000)
                         ((_ zero_extend 1) ((_ extract 22 0) main@%_3488_0)))
                   (bvor (ite a!87 #x800000 #x000000)
                         ((_ zero_extend 1) ((_ extract 22 0) main@%_3484_0)))))
      (a!90 (bvult (bvor (ite a!86 #x800000 #x000000)
                         ((_ zero_extend 1) ((_ extract 22 0) main@%_3503_0)))
                   (bvor (ite a!89 #x800000 #x000000)
                         ((_ zero_extend 1) ((_ extract 22 0) main@%_3484_0)))))
      (a!91 (bvult (bvor (ite a!87 #x800000 #x000000)
                         ((_ zero_extend 1) ((_ extract 22 0) main@%_3503_0)))
                   (bvor (ite a!89 #x800000 #x000000)
                         ((_ zero_extend 1) ((_ extract 22 0) main@%_3488_0)))))
      (a!94 (bvult (bvor (ite a!92 #x800000 #x000000)
                         ((_ zero_extend 1) ((_ extract 22 0) main@%_3718_0)))
                   (bvor (ite a!93 #x800000 #x000000)
                         ((_ zero_extend 1) ((_ extract 22 0) main@%_3714_0)))))
      (a!96 (bvult (bvor (ite a!92 #x800000 #x000000)
                         ((_ zero_extend 1) ((_ extract 22 0) main@%_3733_0)))
                   (bvor (ite a!95 #x800000 #x000000)
                         ((_ zero_extend 1) ((_ extract 22 0) main@%_3714_0)))))
      (a!97 (bvult (bvor (ite a!93 #x800000 #x000000)
                         ((_ zero_extend 1) ((_ extract 22 0) main@%_3733_0)))
                   (bvor (ite a!95 #x800000 #x000000)
                         ((_ zero_extend 1) ((_ extract 22 0) main@%_3718_0)))))
      (a!100 (bvult (bvor (ite a!98 #x800000 #x000000)
                          ((_ zero_extend 1) ((_ extract 22 0) main@%_3948_0)))
                    (bvor (ite a!99 #x800000 #x000000)
                          ((_ zero_extend 1) ((_ extract 22 0) main@%_3944_0)))))
      (a!102 (bvult (bvor (ite a!98 #x800000 #x000000)
                          ((_ zero_extend 1) ((_ extract 22 0) main@%_3963_0)))
                    (bvor (ite a!101 #x800000 #x000000)
                          ((_ zero_extend 1) ((_ extract 22 0) main@%_3944_0)))))
      (a!103 (bvult (bvor (ite a!99 #x800000 #x000000)
                          ((_ zero_extend 1) ((_ extract 22 0) main@%_3963_0)))
                    (bvor (ite a!101 #x800000 #x000000)
                          ((_ zero_extend 1) ((_ extract 22 0) main@%_3948_0)))))
      (a!106 (bvult (bvor (ite a!104 #x800000 #x000000)
                          ((_ zero_extend 1) ((_ extract 22 0) main@%_4178_0)))
                    (bvor (ite a!105 #x800000 #x000000)
                          ((_ zero_extend 1) ((_ extract 22 0) main@%_4174_0)))))
      (a!108 (bvult (bvor (ite a!104 #x800000 #x000000)
                          ((_ zero_extend 1) ((_ extract 22 0) main@%_4193_0)))
                    (bvor (ite a!107 #x800000 #x000000)
                          ((_ zero_extend 1) ((_ extract 22 0) main@%_4174_0)))))
      (a!109 (bvult (bvor (ite a!105 #x800000 #x000000)
                          ((_ zero_extend 1) ((_ extract 22 0) main@%_4193_0)))
                    (bvor (ite a!107 #x800000 #x000000)
                          ((_ zero_extend 1) ((_ extract 22 0) main@%_4178_0)))))
      (a!112 (bvult (bvor (ite a!110 #x800000 #x000000)
                          ((_ zero_extend 1) ((_ extract 22 0) main@%_4408_0)))
                    (bvor (ite a!111 #x800000 #x000000)
                          ((_ zero_extend 1) ((_ extract 22 0) main@%_4404_0)))))
      (a!114 (bvult (bvor (ite a!110 #x800000 #x000000)
                          ((_ zero_extend 1) ((_ extract 22 0) main@%_4423_0)))
                    (bvor (ite a!113 #x800000 #x000000)
                          ((_ zero_extend 1) ((_ extract 22 0) main@%_4404_0)))))
      (a!115 (bvult (bvor (ite a!111 #x800000 #x000000)
                          ((_ zero_extend 1) ((_ extract 22 0) main@%_4423_0)))
                    (bvor (ite a!113 #x800000 #x000000)
                          ((_ zero_extend 1) ((_ extract 22 0) main@%_4408_0)))))
      (a!118 (bvult (bvor (ite a!116 #x800000 #x000000)
                          ((_ zero_extend 1) ((_ extract 22 0) main@%_4638_0)))
                    (bvor (ite a!117 #x800000 #x000000)
                          ((_ zero_extend 1) ((_ extract 22 0) main@%_4634_0)))))
      (a!120 (bvult (bvor (ite a!116 #x800000 #x000000)
                          ((_ zero_extend 1) ((_ extract 22 0) main@%_4653_0)))
                    (bvor (ite a!119 #x800000 #x000000)
                          ((_ zero_extend 1) ((_ extract 22 0) main@%_4634_0)))))
      (a!121 (bvult (bvor (ite a!117 #x800000 #x000000)
                          ((_ zero_extend 1) ((_ extract 22 0) main@%_4653_0)))
                    (bvor (ite a!119 #x800000 #x000000)
                          ((_ zero_extend 1) ((_ extract 22 0) main@%_4638_0))))))
(let ((a!122 (xor (or (and a!118 a!120)
                      (and a!121 (xor a!118 true))
                      (xor (or a!121 a!120) true))
                  true)))
(let ((a!123 (ite (or (and a!112 a!114)
                      (and a!115 (xor a!112 true))
                      (xor (or a!115 a!114) true))
                  (and true a!122)
                  true)))
(let ((a!124 (ite (or (and a!106 a!108)
                      (and a!109 (xor a!106 true))
                      (xor (or a!109 a!108) true))
                  a!123
                  true)))
(let ((a!125 (ite (or (and a!100 a!102)
                      (and a!103 (xor a!100 true))
                      (xor (or a!103 a!102) true))
                  a!124
                  true)))
(let ((a!126 (ite (or (and a!94 a!96)
                      (and a!97 (xor a!94 true))
                      (xor (or a!97 a!96) true))
                  a!125
                  true)))
(let ((a!127 (ite (or (and a!88 a!90)
                      (and a!91 (xor a!88 true))
                      (xor (or a!91 a!90) true))
                  a!126
                  true)))
(let ((a!128 (ite (or (and a!82 a!84)
                      (and a!85 (xor a!82 true))
                      (xor (or a!85 a!84) true))
                  a!127
                  true)))
(let ((a!129 (ite (or (and a!76 a!78)
                      (and a!79 (xor a!76 true))
                      (xor (or a!79 a!78) true))
                  a!128
                  true)))
(let ((a!130 (ite (or (and a!70 a!72)
                      (and a!73 (xor a!70 true))
                      (xor (or a!73 a!72) true))
                  a!129
                  true)))
(let ((a!131 (ite (or (and a!64 a!66)
                      (and a!67 (xor a!64 true))
                      (xor (or a!67 a!66) true))
                  a!130
                  true)))
(let ((a!132 (ite (or (and a!58 a!60)
                      (and a!61 (xor a!58 true))
                      (xor (or a!61 a!60) true))
                  a!131
                  true)))
(let ((a!133 (ite (or (and a!52 a!54)
                      (and a!55 (xor a!52 true))
                      (xor (or a!55 a!54) true))
                  a!132
                  true)))
(let ((a!134 (ite (or (and a!46 a!48)
                      (and a!49 (xor a!46 true))
                      (xor (or a!49 a!48) true))
                  a!133
                  true)))
(let ((a!135 (ite (or (and a!40 a!42)
                      (and a!43 (xor a!40 true))
                      (xor (or a!43 a!42) true))
                  a!134
                  true)))
(let ((a!136 (ite (or (and a!34 a!36)
                      (and a!37 (xor a!34 true))
                      (xor (or a!37 a!36) true))
                  a!135
                  true)))
(let ((a!137 (ite (or (and a!28 a!30)
                      (and a!31 (xor a!28 true))
                      (xor (or a!31 a!30) true))
                  a!136
                  true)))
(let ((a!138 (ite (or (and a!22 a!24)
                      (and a!25 (xor a!22 true))
                      (xor (or a!25 a!24) true))
                  a!137
                  true)))
(let ((a!139 (ite (or (and a!16 a!18)
                      (and a!19 (xor a!16 true))
                      (xor (or a!19 a!18) true))
                  a!138
                  true)))
(let ((a!140 (ite (or (and a!10 a!12)
                      (and a!13 (xor a!10 true))
                      (xor (or a!13 a!12) true))
                  a!139
                  true)))
(let ((a!141 (ite (or (and a!4 a!6)
                      (and a!7 (xor a!4 true))
                      (xor (or a!7 a!6) true))
                  a!140
                  true)))
  (ite a!1 a!141 true))))))))))))))))))))))))

(check-sat)
